100
32
10
1
7
22
4
8
17
25
11
17
8
15
18
25
9
2
9
15
9
1
1
2
5
13
12
11
4
1
1
13
2
9
9
17
18
10
26
17
18
18
2
13
2
18
8
1
17
21
17
3
2
27
1
2
1
1
2
1
2
2
17
3
4
3
3
5
17
1
2
2
2
1
1
7
2
1
10
2
2
1
1
3
2
18
4
2
1
2
2
4
4
2
16
4
3
2
18
5
20
1